199
0 54 105 110 99 79 157 122 81 6 
1 24 112 12 19 26 153 144 154 86 
88 94 37 161 145 90 178 35 78 131 
109 46 129 48 96 16 118 189 91 111 
49 38 151 113 52 44 9 2 162 120 
40 76 148 142 36 100 61 103 23 75 
70 196 176 147 69 71 87 134 31 182 
139 152 63 121 187 170 166 59 58 41 
192 25 173 125 60 184 183 117 42 66 
77 64 98 10 198 101 115 80 180 149 
95 116 143 172 97 32 126 3 43 195 
73 146 190 84 133 57 68 108 127 14 
13 17 193 50 191 102 82 28 22 132 
4 56 74 156 165 177 65 5 72 62 
164 150 104 135 163 141 85 7 194 29 
124 155 128 140 160 107 33 21 167 27 
137 51 119 47 93 45 169 11 30 171 
188 179 53 130 55 92 83 123 197 89 
174 20 39 34 186 114 67 159 136 175 
8 181 15 168 106 138 185 158 18 
